COMMENT : drilling problem (Ludwig)
288 288 270 256 256 246 236 228 228 220 212 204 196 188 196 188 172 164 156 148 140 148 164 172 156 140 132 124 116 104 104 104 90 80 64 64 56 56 56 56 56 56 56 40 40 40 40 40 40 40 32 32 32 32 32 32 32 32 40 56 56 48 40 32 32 24 16 16 8 8 8 8 8 8 8 16 8 8 24 32 32 32 32 32 32 40 40 40 40 44 44 44 32 24 16 16 24 32 44 56 56 56 56 56 64 72 72 56 48 56 56 48 48 56 56 48 56 56 104 104 104 104 104 104 104 116 124 132 132 140 148 156 164 172 172 172 172 172 172 180 180 180 180 180 172 172 172 172 164 148 124 124 124 124 124 124 104 104 104 104 104 104 104 104 104 92 80 72 64 72 80 80 80 88 104 124 124 132 140 132 124 124 124 124 124 132 124 120 128 136 148 162 156 172 180 180 172 172 172 180 180 188 196 204 212 220 228 228 236 236 236 228 228 236 236 228 228 236 236 228 228 236 252 260 260 260 260 260 260 260 276 276 276 276 284 284 284 284 284 284 284 288 280 276 276 276 268 260 252 260 260 236 228 228 236 236 228 228 228 228 220 212 204 196 188 180 180 180 180 180 196 204 212 220 228 236 246 252 260 280
149 129 133 141 157 157 169 169 161 169 169 169 169 169 161 145 145 145 145 145 145 169 169 169 169 169 169 169 161 153 161 169 165 157 157 165 169 161 153 145 137 129 121 121 129 137 145 153 161 169 169 161 153 145 137 129 121 113 113 113 105 99 99 97 89 89 97 109 109 97 89 81 73 65 57 57 49 41 45 41 49 57 65 73 81 83 73 63 51 43 35 27 25 25 25 17 17 17 11 9 17 25 33 41 41 41 49 49 51 57 65 63 73 73 81 83 89 97 97 105 113 121 129 137 145 145 145 145 137 137 137 137 137 125 117 109 101 93 85 85 77 69 61 53 53 61 69 77 81 85 85 93 109 125 117 101 89 81 73 65 49 41 33 25 17 9 9 9 21 25 25 25 41 49 57 69 77 81 65 61 61 53 45 37 29 21 21 9 9 9 9 9 25 21 21 29 29 37 45 45 37 41 49 57 65 73 69 77 77 69 61 61 53 53 45 45 37 37 29 29 21 21 21 29 37 45 53 61 69 77 77 69 61 53 53 61 69 77 85 93 101 109 109 101 93 85 97 109 101 93 85 85 85 93 93 101 101 109 117 125 125 117 109 101 93 93 101 109 117 125 145 145 145 145 145 145 141 125 129 133
30847.4 30847.4 30847.4 30847.4 30847.4 30847.4 30847.4 30847.4 30847.4 30847.4 30847.4 30847.4 30847.4 30847.4 30847.4 30847.4 30847.4 30847.4 30847.4 30847.4 30847.4 30847.4 30847.4 30847.4 30847.4 30847.4 30847.4 30847.4 30847.4 30847.4 30847.4 30847.4 30847.4 30847.4 30847.4 30847.4 30847.4 30842.4 30842.4 30842.4 30842.4 30842.4 30842.4 30842.4 30842.4 30842.4 30842.4 30842.4 30842.4 30842.4 30842.4 30842.4 30842.4 30842.4 30842.4 30842.4 30842.4 30842.4 30842.4 30842.4 30842.4 30842.4 30842.4 30842.4 30842.4 30842.4 30842.4 30842.4 30842.4 30842.4 30842.4 30842.4 30842.4 30842.4 30842.4 30842.4 30842.4 30842.4 30842.4 30842.4 30842.4 30842.4 30842.4 30842.4 30842.4 30842.4 30842.4 30842.4 30842.4 30842.4 30739.2 30739.2 30739.2 30739.2 30739.2 30739.2 30739.2 30739.2 30739.2 30739.2 30739.2 30739.2 30739.2 30475.1 30475.1 30475.1 30475.1 30475.1 30475.1 30475.1 30475.1 30475.1 30475.1 30475.1 30475.1 30475.1 30475.1 30475.1 30475.1 30475.1 30475.1 30475.1 30475.1 30475.1 30475.1 30475.1 30475.1 30475.1 30475.1 30475.1 30475.1 30475.1 30475.1 30475.1 30475.1 30475.1 30475.1 30475.1 30475.1 30475.1 30475.1 30475.1 30475.1 30475.1 30475.1 30475.1 30475.1 30475.1 30475.1 30475.1 30473.9 30473.9 30120.4 30120.4 30120.4 30120.4 30120.4 30120.4 30120.4 30120.4 30120.4 30120.4 30120.4 30120.4 30120.4 30120.4 30120.4 30120.4 30120.4 30120.4 30120.4 30120.4 30120.4 30120.4 30120.4 30120.4 30120.4 30120.4 30120.4 30120.4 30120.4 30120.4 30120.4 30120.4 30120.4 30120.4 30120.4 30120.4 30120.4 30120.4 30120.4 30120.4 30120.4 30120.4 30120.4 30120.4 30120.4 30120.4 30120.4 30120.4 30120.4 30120.4 30120.4 30120.4 30120.4 30120.4 30120.4 30120.4 30120.4 30120.4 30120.4 30120.4 30120.4 30120.4 30120.4 30120.4 30120.4 30120.4 30120.4 30120.4 30120.4 30120.4 30120.4 30120.4 30120.4 30120.4 30120.4 30120.4 30120.4 30120.4 30120.4 30120.4 30120.4 29999.7 29993.4 29885.3 29885.3 29885.3 29885.3 29885.3 29885.3 29885.3 29885.3 29885.3 29885.3 29885.3 29885.3 29885.3 29885.3 29885.3 29885.3 29885.3 29885.3 29885.3 29885.3 29885.3 29885.3 29885.3 29885.3 29885.3 29885.3 29885.3 29885.3 29885.3 29841.7 29654.8 29654.8 29654.8 29654.8 29654.8 29654.8 29654.8 29654.8 29654.8 29654.8 29654.8 29654.8 29654.8 29654.8 29654.8 29654.8 29654.8 29654.8 29654.8 29654.8 29654.8 29654.8 29654.8 29654.8 29654.8 29654.8 29654.8 29635.7 29635.7 29635.7 29635.7 29635.7 29635.7 29635.7 29635.7 29635.7 29635.7 29635.7 29635.7 29635.7 29635.7 29635.7 29635.7 29635.7 29635.7 29635.7 29635.7 29635.7 29635.7 29635.7 29635.7 29635.7 29635.7 29635.7 29635.7 29635.7 29635.7 29635.7 29635.7 29635.7 29635.7 29635.7 29635.7 29635.7 29635.7 29635.7 29635.7 29521.3 29521.3 29521.3 29521.3 29521.3 29521.3 29521.3 29521.3 29521.3 29521.3 29521.3 29521.3 29521.3 29521.3 29521.3 29521.3 29521.3 29521.3 29521.3 29521.3 29521.3 29521.3 29521.3 29521.3 29521.3 29521.3 29521.3 29521.3 29521.3 29521.3 29521.3 29521.3 29521.3 29521.3 29521.3 29521.3 29521.3 29486.5 29486.5 29486.5 29486.5 29486.5 29486.5 29486.5 29486.5 29486.5 29486.5 29486.5 29486.5 29486.5 29486.5 29180.4 29180.4 29180.4 29180.4 29180.4 29180.4 29180.4 29180.4 29180.4 29180.4 29180.4 28986.7 28986.7 28986.7 28986.7 28986.7 28986.7 28986.7 28986.7 28986.7 28986.7 28986.7 28986.7 28986.7 28986.7 28986.7 28986.7 28986.7 28986.7 28986.7 28986.7 28986.7 28986.7 28986.7 28986.7 28986.7 28986.7 28986.7 28986.7 28986.7 28986.7 28986.7 28986.7 28986.7 28986.7 28986.7 28986.7 28986.7 28986.7 28986.7 28986.7 28986.7 28986.7 28986.7 28986.7 28986.7 28986.7 28986.7 28986.7 28986.7 28986.7 28986.7 28986.7 28986.7 28986.7 28986.7 28986.7 28986.7 28986.7 28986.7 28986.7 28986.7 28986.7 28986.7 28986.7 28986.7 28986.7 28986.7 28986.7 28986.7 28986.7 28986.7 28986.7 28986.7 28986.7 28986.7 28986.7 28986.7 28986.7 28986.7 28986.7 28986.7 28735.5 28735.5 28735.5 28735.5 28735.5 28735.5 28735.5 28735.5 28735.5 28585.4 28585.4 28585.4 28585.4 28585.4 28585.4 28585.4 28585.4 28585.4 28585.4 28585.4 28585.4 28585.4 28585.4 28585.4 28585.4 28585.4 28585.4 28585.4 28585.4 28585.4 28585.4 28585.4 28585.4 28585.4 28585.4 28585.4 28585.4 28585.4 28585.4 28585.4 28585.4 28585.4 28585.4 28585.4 28585.4 28585.4 28585.4 28585.4 28585.4 28585.4 28585.4 28585.4 28585.4 28585.4 28585.4 28585.4 28585.4 28585.4 28585.4 28585.4 28585.4 28585.4 28585.4 28585.4 28585.4 28585.4 28585.4 28585.4 28585.4 28585.4 28585.4 28585.4 28585.4 28585.4 28585.4 28585.4 28585.4 28585.4 28585.4 28585.4 28585.4 28585.4 28585.4 28585.4 28585.4 28585.4 28585.4 28585.4 28585.4 28585.4 28585.4 28585.4 28585.4 28585.4 28585.4 28585.4 28585.4 28585.4 28585.4 28585.4 28585.4 28585.4 28585.4 28585.4 28585.4 28585.4 28585.4 28585.4 28585.4 28585.4 28585.4 28585.4 28585.4 28585.4 28585.4 28585.4 28585.4 28585.4 28585.4 28585.4 28585.4 28585.4 28585.4 28585.4 28585.4 28585.4 28585.4 28585.4 28585.4 28585.4 28585.4 28585.4 28585.4 28585.4 28585.4 28585.4 28585.4 28585.4 28585.4 28585.4 28585.4 28585.4 28585.4 28585.4 28585.4 28585.4 28585.4 28585.4 28585.4 28585.4 28585.4 28585.4 28585.4 28585.4 28585.4 28585.4 28585.4 28585.4 28585.4 28585.4 28585.4 28585.4 28585.4 28585.4 28585.4 28585.4 28585.4 28585.4 28585.4 28585.4 28585.4 28556.6 28534.7 28380.1 28380.1 28380.1 28380.1 28380.1 28380.1 28380.1 28380.1 28380.1 28380.1 28380.1 28380.1 28380.1 28380.1 28380.1 28380.1 28380.1 28380.1 28380.1 28380.1 28380.1 28380.1 28380.1 28380.1 28380.1 28380.1 28380.1 28380.1 28380.1 28380.1 28380.1 28380.1 28380.1 28380.1 28380.1 28380.1 28380.1 28380.1 28380.1 28380.1 28380.1 28380.1 28380.1 28380.1 28380.1 28380.1 28380.1 28380.1 28380.1 28380.1 28380.1 28380.1 28380.1 28380.1 28380.1 28380.1 28330.7 28330.7 28330.7 28330.7 28330.7 28330.7 28330.7 28330.7 28330.7 28330.7 28330.7 28330.7 28330.7 28330.7 28330.7 28330.7 28330.7 28330.7 28330.7 28330.7 28330.7 28330.7 28330.7 28330.7 28330.7 28330.7 28330.7 28330.7 28330.7 28330.7 28330.7 28330.7 28086.4 28086.4 28086.4 28086.4 28086.4 28086.4 28086.4 28086.4 28086.4 28086.4 28086.4 28086.4 28086.4 28086.4 28086.4 28086.4 28086.4 28086.4 28086.4 28086.4 28086.4 28086.4 28086.4 28086.4 28086.4 28086.4 28086.4 28086.4 28086.4 28086.4 28086.4 28086.4 28086.4 28086.4 28086.4 28086.4 28086.4 28066.5 28066.5 28066.5 28066.5 28066.5 28066.5 28066.5 28066.5 28066.5 28066.5 28066.5 28066.5 28066.5 28066.5 28066.5 28066.5 28066.5 28066.5 28066.5 28066.5 28066.5 28066.5 28066.5 28066.5 28066.5 28066.5 28066.5 28066.5 28066.5 28066.5 28066.5 28066.5 28066.5 28066.5 28066.5 28066.5 28066.5 28066.5 28066.5 28066.5 28066.5 28066.5 28066.5 28066.5 28066.5 28066.5 28066.5 28066.5 28066.5 28066.5 28066.5 28066.5 28066.5 28066.5 28066.5 28066.5 28066.5 28066.5 28066.5 28066.5 28066.5 28066.5 28066.5 28066.5 28066.5 28066.5 28066.5 28066.5 28066.5 28066.5 28066.5 28066.5 28066.5 28066.5 28066.5 28066.5 28066.5 28066.5 28066.5 28066.5 28066.5 28066.5 28066.5 28066.5 28066.5 28066.5 28066.5 28066.5 28066.5 28066.5 28066.5 28066.5 28066.5 28066.5 28066.5 28066.5 28066.5 28066.5 28066.5 28066.5 28066.5 28066.5 28066.5 28066.5 28066.5 28066.5 28066.5 28066.5 28066.5 28066.5 28066.5 28066.5 28066.5 28066.5 28066.5 28066.5 28066.5 28066.5 28066.5 28066.5 28066.5 28066.5 28066.5 28066.5 28066.5 28066.5 28066.5 28066.5 28066.5 28066.5 28066.5 28066.5 28066.5 28066.5 28066.5 28066.5 28066.5 28066.5 28066.5 28066.5 28066.5 28066.5 28066.5 28066.5 28066.5 28066.5 28066.5 28066.5 28066.5 28066.5 28066.5 28066.5 28066.5 28066.5 28066.5 28066.5 28066.5 28066.5 28066.5 28066.5 28028.1 28028.1 28028.1 28028.1 28028.1 28028.1 28028.1 28028.1 28028.1 28028.1 28028.1 28028.1 28028.1 28028.1 28028.1 28028.1 28028.1 28028.1 28028.1 28028.1 28028.1 28028.1 28028.1 28028.1 28028.1 28028.1 28028.1 28028.1 28028.1 28028.1 28028.1 28028.1 28028.1 28028.1 28028.1 28028.1 27496.3 27496.3 27496.3 27496.3 27496.3 27496.3 27496.3 27496.3 27496.3 27496.3 27496.3 27496.3 27496.3 27496.3 27496.3 27496.3 27496.3 27496.3 27496.3 27496.3 27496.3 27496.3 27496.3 27496.3 27496.3 27496.3 27496.3 27496.3 27496.3 27496.3 27496.3 27496.3 27496.3 27496.3 27496.3 27496.3 27496.3 27496.3 27496.3 27496.3 27496.3 27496.3 27496.3 27496.3 27496.3 27496.3 27496.3 27496.3 27496.3 27496.3 27496.3 27496.3 27496.3 27496.3 27496.3 27496.3 27496.3 27496.3 27496.3 27496.3 27496.3 27496.3 27496.3 27496.3 27496.3 27496.3 27496.3 27496.3 27496.3 27496.3 27496.3 27496.3 27496.3 27496.3 27496.3 27496.3 27496.3 27496.3 27496.3 27496.3 27496.3 27496.3 27496.3 27496.3 27496.3 27496.3 27496.3 27496.3 27496.3 27496.3 27496.3 27496.3 27496.3 27496.3 27496.3 27496.3 27496.3 27496.3 27496.3 27496.3 27496.3 27496.3 27496.3 27496.3 27496.3 27496.3 27496.3 27496.3 27496.3 27496.3 27496.3 27496.3 27496.3 27496.3 27496.3 27496.3 27496.3 27496.3 27496.3 27496.3 27496.3 27496.3 27496.3 27496.3 27496.3 27496.3 27496.3 27496.3 27496.3 27496.3 27412.8 27412.8 27412.8 27412.8 27412.8 27412.8 27412.8 27412.8 27412.8 27412.8 27412.8 27412.8 27412.8 27412.8 27412.8 27412.8 27412.8 27412.8 27412.8 27412.8 27412.8 27412.8 27412.8 27412.8 27412.8 27412.8 27412.8 27412.8 27412.8 27412.8 27412.8 27412.8 27412.8 27412.8 27412.8 27412.8 27412.8 27412.8 27412.8 27412.8 27412.8 27412.8 27412.8 27412.8 27412.8 27412.8 27412.8 27412.8 27412.8 27412.8 27412.8 27412.8 27412.8 27412.8 27412.8 27412.8 27342.9 27342.9 27342.9 27342.9 27133.9 27133.9 27133.9 27133.9 27133.9 27133.9 27133.9 27133.9 27133.9 27133.9 27133.9 27133.9 27133.9 27133.9 27133.9 27133.9 27133.9 27133.9 27133.9 27133.9 27133.9 27133.9 27133.9 27133.9 27133.9 27114.5 27114.5 27114.5 27055.2 27055.2 27055.2 27055.2 27055.2 27055.2 27055.2 27055.2 27055.2 27055.2 27055.2 27055.2 27055.2 27055.2 27055.2 27055.2 27055.2 27055.2 27055.2 27055.2 27055.2 27055.2 27020.5 27020.5 27020.5 27020.5 27020.5 27020.5 27020.5 27020.5 27020.5 27020.5 27020.5 27020.5 27020.5 27020.5 27020.5 27020.5 27020.5 27020.5 27020.5 27020.5 27020.5 27020.5 27020.5 27020.5 27020.5 27020.5 27020.5 27020.5 27020.5 27020.5 27020.5 27020.5 27020.5 27020.5 27020.5 27020.5 27020.5 27020.5 27020.5 27020.5 27020.5 27020.5 27020.5 27020.5 27020.5 27020.5 26902.7 26777.9 26777.9 26777.9 26777.9 26669.8 26669.8 26669.8 26669.8 26669.8 26669.8 26669.8 26590.1 26590.1 26590.1 26590.1 26590.1 26590.1 26590.1 26590.1 26590.1 26590.1 26590.1 26590.1 26590.1 26590.1 26590.1 26590.1 26590.1 26590.1 26590.1 26590.1 26590.1 26590.1 26590.1 26590.1 26590.1 26590.1 26590.1 26590.1 26590.1 26590.1 26590.1 26590.1 26590.1 26590.1 26590.1 26590.1 26590.1 26590.1 26590.1 26590.1 26590.1 26590.1 26590.1 26590.1 26590.1 26590.1 26590.1 26590.1 26590.1 26590.1 26590.1 26590.1 26590.1 26590.1 26590.1 26590.1 26590.1 26590.1 26590.1 26590.1 26590.1 26590.1 26590.1 26590.1 26590.1 26590.1 26590.1 26590.1 26590.1 26590.1 26590.1 26590.1 26590.1 26590.1 26590.1 26590.1 26590.1 26590.1 26590.1 26590.1 26590.1 26590.1 26590.1 26590.1 26590.1 26590.1 26590.1 26590.1 26590.1 26590.1 26590.1 26590.1 26590.1 26590.1 26590.1 26590.1 26590.1 26590.1 26590.1 26590.1 26590.1 26590.1 26590.1 26590.1 26590.1 26590.1 26590.1 26590.1 26590.1 26587.1 26587.1 26587.1 26587.1 26587.1 26587.1 26587.1 26587.1 26587.1 26587.1 26587.1 26587.1 26587.1 26587.1 26587.1 26587.1 26587.1 26543.6 26530.7 26449.3 26449.3 26449.3 26449.3 26449.3 26449.3 26449.3 26449.3 26449.3 26449.3 26449.3 26449.3 26449.3 26449.3 26449.3 26449.3 26449.3 26449.3 26449.3 26449.3 26386.8 26386.8 26386.8 26386.8 26386.8 26386.8 26386.8 26386.8 26386.8 26386.8 26226.8 26226.8 26226.8 26226.8 26226.8 26226.8 26226.8 26226.8 26226.8 26226.8 26226.8 26226.8 26226.8 26226.8 26226.8 26226.8 26226.8 26226.8 26226.8 26226.8 26226.8 26226.8 26226.8 26226.8 26226.8 26226.8 26226.8 26226.8 26226.8 26226.8 26226.8 26226.8 26226.8 26226.8 26226.8 26023.3 26023.3 26023.3 26023.3 26023.3 26023.3 26023.3 26023.3 26023.3 26023.3 26023.3 26023.3 26023.3 26023.3 26023.3 26023.3 26023.3 26023.3 26023.3 26023.3 26023.3 26023.3 26023.3 26023.3 26023.3 26023.3 26023.3 26023.3 26023.3 26023.3 26023.3 26023.3 26023.3 26023.3 26023.3 26023.3 26023.3 26023.3 26023.3 26023.3 26023.3 26023.3 26023.3 26023.3 26023.3 26023.3 26023.3 26023.3 26023.3 26023.3 26023.3 26023.3 26023.3 26023.3 26023.3 26023.3 26023.3 26023.3 26023.3 26023.3 26023.3 26023.3 26023.3 26023.3 26023.3 25940.4 25940.4 25940.4 25940.4 25940.4 25940.4 25940.4 25940.4 25940.4 25940.4 25940.4 25940.4 25940.4 25940.4 25940.4 25940.4 25940.4 25940.4 25940.4 25940.4 25940.4 25911.4 25911.4 25911.4 25911.4 25827.7 25827.7 25827.7 25827.7 25827.7 25827.7 25827.7 25827.7 25827.7 25827.7 25827.7 25827.7 25827.7 25827.7 25827.7 25827.7 25827.7 25827.7 25827.7 25827.7 25827.7 25827.7 25827.7 25827.7 25827.7 25827.7 25827.7 25827.7 25827.7 25827.7 25827.7 25827.7 25827.7 25827.7 25827.7 25827.7 25827.7 25827.7 25827.7 25827.7 25827.7 25827.7 25827.7 25827.7 25827.7 25827.7 25827.7 25827.7 25827.7 25827.7 25827.7 25827.7 25827.7 25827.7 25827.7 25827.7 25827.7 25827.7 25827.7 25827.7 25827.7 25827.7 25827.7 25827.7 25827.7 25827.7 25827.7 25827.7 25827.7 25827.7 25827.7 25827.7 25827.7 25827.7 25827.7 25827.7 25827.7 25827.7 25827.7 25827.7 25827.7 25827.7 25827.7 25827.7 25827.7 25827.7 25827.7 25827.7 25827.7 25827.7 25827.7 25827.7 25827.7 25827.7 25827.7 25827.7 25827.7 25827.7 25827.7 25827.7 25827.7 25827.7 25827.7 25827.7 25827.7 25827.7 25827.7 25827.7 25827.7 25827.7 25827.7 25827.7 25827.7 25827.7 25827.7 25827.7 25827.7 25827.7 25827.7 25827.7 25827.7 25827.7 25827.7 25827.7 25827.7 25827.7 25827.7 25827.7 25827.7 25827.7 25827.7 25827.7 25827.7 25827.7 25827.7 25827.7 25827.7 25827.7 25827.7 25827.7 25827.7 25827.7 25827.7 25827.7 25827.7 25827.7 25827.7 25827.7 25827.7 25827.7 25827.7 25827.7 25827.7 25827.7 25827.7 25827.7 25827.7 25827.7 25827.7 25827.7 25805.3 25805.3 25805.3 25805.3 25805.3 25805.3 25805.3 25805.3 25805.3 25805.3 25805.3 25493.5 25493.5 25493.5 25493.5 25493.5 25493.5 25493.5 25493.5 25493.5 25493.5 25493.5 25493.5 25493.5 25493.5 25493.5 25493.5 25493.5 25493.5 25493.5 25493.5 25493.5 25493.5 25493.5 25493.5 25493.5 25493.5 25493.5 25493.5 25493.5 25493.5 25493.5 25493.5 25493.5 25493.5 25493.5 25493.5 25493.5 25493.5 25493.5 25493.5 25493.5 25493.5 25493.5 25493.5 25493.5 25493.5 25493.5 25493.5 25493.5 25493.5 25493.5 25493.5 25493.5 25493.5 25493.5 25493.5 25493.5 25493.5 25493.5 25493.5 25493.5 25493.5 25493.5 25493.5 25493.5 25493.5 25493.5 25493.5 25493.5 25493.5 25493.5 25493.5 25493.5 25493.5 25493.5 25493.5 25493.5 25493.5 25493.5 25493.5 25493.5 25493.5 25493.5 25493.5 25493.5 25493.5 25493.5 25493.5 25493.5 25493.5 25493.5 25493.5 25493.5 25493.5 25493.5 25493.5 25493.5 25493.5 25493.5 25493.5 25493.5 25493.5 25493.5 25493.5 25493.5 25493.5 25493.5 25493.5 25493.5 25493.5 25493.5 25493.5 25493.5 25493.5 25493.5 25493.5 25493.5 25493.5 25493.5 25493.5 25493.5 25493.5 25300.4 25300.4 25300.4 25300.4 25300.4 25300.4 25300.4 25300.4 25300.4 25300.4 25300.4 25300.4 25300.4 25300.4 25300.4 25300.4 25300.4 25300.4 25300.4 25300.4 25300.4 25300.4 25300.4 25226.6 25226.6 25226.6 25226.6 25226.6 25226.6 25226.6 25226.6 25226.6 25226.6 25226.6 25226.6 25226.6 25226.6 25226.6 25226.6 25226.6 25226.6 25226.6 25226.6 25226.6 25226.6 25226.6 25226.6 25226.6 25226.6 25226.6 25226.6 25226.6 25226.6 25208.1 25208.1 25208.1 25208.1 25106.4 25106.4 25106.4 25106.4 25106.4 25106.4 25106.4 25106.4 25106.4 25106.4 25106.4 25106.4 25106.4 25106.4 25106.4 25106.4 25106.4 25106.4 25106.4 25106.4 25106.4 25106.4 25106.4 25106.4 25106.4 25106.4 25106.4 25106.4 25106.4 25106.4 25106.4 25106.4 25106.4 25106.4 25106.4 25106.4 25106.4 25106.4 25106.4 25106.4 25106.4 25106.4 25106.4 25028.1 25028.1 25028.1 25028.1 25028.1 25028.1 25028.1 25028.1 25028.1 25028.1 25028.1 25028.1 25028.1 25028.1 25028.1 25028.1 25028.1 25028.1 25028.1 25028.1 25028.1 25028.1 25028.1 25028.1 25028.1 25028.1 25028.1 25028.1 25028.1 25028.1 25028.1 25028.1 25028.1 25028.1 25028.1 25028.1 25028.1 25028.1 25028.1 25028.1 25028.1 25028.1 25028.1 25028.1 25028.1 25028.1 25028.1 25028.1 25028.1 25028.1 25028.1 25028.1 25028.1 25028.1 25028.1 25028.1 25028.1
157 167 184 222 11 159 8 220 23 26 35 68 17 144 243 82 96 169 41 127 130 160 4 217 206 12 32 262 242 268 134 183 168 51 150 95 72 36 145 253 252 138 102 97 77 71 65 33 197 18 158 22 121 227 225 248 75 162 176 64 174 188 5 226 179 107 163 110 94 153 187 16 273 260 89 86 83 165 161 201 126 37 117 133 62 195 7 28 208 233 2 177 78 100 113 76 81 87 54 50 19 137 265 178 213 223 214 212 156 155 114 42 154 140 109 229 278 218 151 93 99 105 116 204 164 193 244 200 132 125 14 24 186 39 34 31 52 38 267 185 106 15 250 237 6 209 211 270 274 148 112 88 79 111 55 228 45 56 30 280 279 175 53 49 47 40 231 255 13 240 181 141 277 236 247 27 166 119 63 90 70 44 103 221 257 61 173 192 25 196 207 256 203 122 266 275 259 210 239 205 142 171 120 60 98 199 194 147 251 271 272 269 48 135 190 9 246 143 118 67 128 21 189 182 172 170 258 108 149 238 191 235 10 276 57 59 180 101 249 230 241 139 124 85 104 152 115 66 73 245 232 216 136 202 131 198 92 43 58 123 263 261 146 234 254 1 224 3 219 215 80 91 129 69 264 74 84 20 46 29
1 2 242 243 244 241 240 239 238 237 236 235 234 233 232 231 246 245 247 250 251 230 229 228 227 226 225 224 223 222 221 220 219 218 217 216 215 214 213 212 211 210 207 206 205 204 203 202 201 198 197 196 195 194 193 192 191 190 189 188 187 186 185 184 183 182 181 176 180 179 150 178 177 151 152 156 153 155 154 129 130 131 20 21 128 127 126 125 124 123 122 121 120 119 157 158 159 160 175 161 162 163 164 165 166 167 168 169 170 172 171 173 174 107 106 105 104 103 102 101 100 99 98 97 96 95 94 93 92 91 90 89 109 108 110 111 112 88 87 113 114 115 117 116 86 85 84 83 82 81 80 79 78 77 76 75 74 73 72 71 70 69 68 67 66 65 64 58 57 56 55 54 53 52 51 50 49 48 47 46 45 44 59 63 62 118 61 60 43 42 41 40 39 38 37 36 35 34 33 32 31 30 29 28 27 26 22 25 23 24 14 15 13 12 11 10 9 8 7 6 5 4 277 276 275 274 273 272 271 16 17 18 19 132 133 134 270 269 135 136 268 267 137 138 139 149 148 147 146 145 199 200 144 143 142 141 140 266 265 264 263 262 261 260 259 258 257 254 253 208 209 252 255 256 249 248 278 279 3 280
